benchmarks_vrp/CMT5/tsp_classic/CMT5_14.vrp
NAME: CMT5_14
TYPE: CVRP
COMMENT: 1291.29 - Cluster Nr.14
DIMENSION: 16
CAPACITY: 200
EDGE_WEIGHT_TYPE: EUC_2D
NODE_COORD_TYPE: TWOD_COORDS
NODE_COORD_SECTION: 
6 53 43
14 55 45
3 62 48
8 55 45
12 58 48
9 61 52
16 35 35
4 65 35
1 50 40
11 65 55
15 62 42
10 52 41
2 51 42
5 57 48
7 64 42
13 62 35
DEPOT_SECTION: 
16
-1
DEMAND_SECTION: 
1 19
7 9
3 15
4 3
5 23
6 14
13 12
11 14
8 16
12 6
15 8
10 15
9 3
16 0
14 13
2 27
EOF
