benchmarks_vrp/CMT5/tsp_classic/CMT5_14.tour
NAME: CMT5_14 solution
TYPE: TOUR
TOUR_SECTION:
16 1 2 10 6 14 8 5 12 9 11 3 15 7 4 13 -1
-1
EOF